RT is False
Default write of storage_offers_DA.csv just to have a file (but constraint should be inactive)
Reading model...
...model read.
creating competitive generators file...
...competitive generators recorded.
Loading data...
.. day-ahead data with real-time VRE data read.
Compiling instance...
...instance created.
Creating Offer Mitigation (model will solve as dispatch if TRUE)...
Solving...

Welcome to IBM(R) ILOG(R) CPLEX(R) Interactive Optimizer 12.9.0.0
  with Simplex, Mixed Integer & Barrier Optimizers
5725-A06 5725-A29 5724-Y48 5724-Y49 5724-Y54 5724-Y55 5655-Y21
Copyright IBM Corp. 1988, 2019.  All Rights Reserved.

Type 'help' for a list of available commands.
Type 'help' followed by a command name for more
information on commands.

CPLEX> Logfile 'cplex.log' closed.
Logfile 'C:\Users\llavin\Desktop\test919\logs\tmp3r81nfm8.cplex.log' open.
CPLEX> New value for parallel optimization mode: -1
CPLEX> New value for mixed integer optimality gap tolerance: 0.01
CPLEX> New value for integrality tolerance: 1e-09
CPLEX> New value for feasibility tolerance: 0.01
CPLEX> New value for deterministic time limit in ticks: 75000
CPLEX> Problem 'C:\Users\llavin\Desktop\test919\logs\tmpdydpf0qd.pyomo.lp' read.
Read time = 0.05 sec. (3.04 ticks)
CPLEX> Problem name         : C:\Users\llavin\Desktop\test919\logs\tmpdydpf0qd.pyomo.lp
Objective sense      : Minimize
Variables            :   26081  [Nneg: 1,  Box: 21616,  Free: 4464]
Objective nonzeros   :    2496
Linear constraints   :   27515  [Less: 14006,  Greater: 4416,  Equal: 9093]
  Nonzeros           :   89219
  RHS nonzeros       :   12269

Variables            : Min LB: -5000.000        Max UB: 1000000.       
Objective nonzeros   : Min   : 15.73158         Max   : 124.0997       
Linear constraints   :
  Nonzeros           : Min   : 0.8500000        Max   : 3000.000       
  RHS nonzeros       : Min   : 0.7833333        Max   : 5000.000       
CPLEX> CPXPARAM_Parallel                                -1
CPXPARAM_Simplex_Tolerances_Feasibility          0.01
CPXPARAM_DetTimeLimit                            75000
CPXPARAM_MIP_Tolerances_MIPGap                   0.01
CPXPARAM_MIP_Tolerances_Integrality              1.0000000000000001e-09
Parallel mode: opportunistic, using up to 32 threads for concurrent optimization.
Tried aggregator 1 time.
LP Presolve eliminated 21377 rows and 15487 columns.
Aggregator did 746 substitutions.
Reduced LP has 5392 rows, 9848 columns, and 31788 nonzeros.
Presolve time = 0.05 sec. (30.19 ticks)
Symmetry aggregator did 5563 additional substitutions.

Iteration log . . .
Iteration:     1   Dual objective     =             0.000000
Perturbation started.
Iteration:   101   Dual objective     =             0.000000
Iteration:   334   Dual objective     =             1.385816
Iteration:   609   Dual objective     =             1.964253
Iteration:   882   Dual objective     =             2.105635
Iteration:  1089   Dual objective     =             2.218915
Iteration:  1370   Dual objective     =             2.269990
Iteration:  1619   Dual objective     =         11321.528996
Iteration:  1843   Dual objective     =        244009.684696
Iteration:  2050   Dual objective     =        724470.079294
Iteration:  2242   Dual objective     =        764013.209097
Iteration:  2462   Dual objective     =        764604.534327
Iteration:  2884   Dual objective     =        766337.511706
Removing perturbation.

Dual crossover.
  Dual:  Fixing 9 variables.
        8 DMoves:  Infeasibility  4.53259652e-13  Objective  7.66406192e+05
        0 DMoves:  Infeasibility  2.54463117e-13  Objective  7.66406192e+05
  Dual:  Pushed 1, exchanged 8.
  Primal:  Fixing 11 variables.
Using devex.

Primal simplex solved model.


Primal simplex - Optimal:  Objective =  7.6640619202e+05
Solution time =    0.17 sec.  Iterations = 1768 (1102)
Deterministic time = 83.44 ticks  (485.13 ticks/sec)

CPLEX> Solution written to file 'C:\Users\llavin\Desktop\test919\logs\tmp0_s02gu6.cplex.sol'.
CPLEX> Exporting results... 
...storage offer mitigation file created
Converting model to MPEC...
...converted
NOTE: initial MIP solve with only storage competitive to get feasible solution
Solving...

Welcome to IBM(R) ILOG(R) CPLEX(R) Interactive Optimizer 12.9.0.0
  with Simplex, Mixed Integer & Barrier Optimizers
5725-A06 5725-A29 5724-Y48 5724-Y49 5724-Y54 5724-Y55 5655-Y21
Copyright IBM Corp. 1988, 2019.  All Rights Reserved.

Type 'help' for a list of available commands.
Type 'help' followed by a command name for more
information on commands.

CPLEX> Logfile 'cplex.log' closed.
Logfile 'C:\Users\llavin\Desktop\test919\logs\tmp8j_1nu26.cplex.log' open.
CPLEX> New value for parallel optimization mode: -1
CPLEX> New value for mixed integer optimality gap tolerance: 0.01
CPLEX> New value for integrality tolerance: 1e-09
CPLEX> New value for feasibility tolerance: 0.01
CPLEX> New value for deterministic time limit in ticks: 75000
CPLEX> Problem 'C:\Users\llavin\Desktop\test919\logs\tmpxt77i35x.pyomo.lp' read.
Read time = 0.23 sec. (14.78 ticks)
CPLEX> Problem name         : C:\Users\llavin\Desktop\test919\logs\tmpxt77i35x.pyomo.lp
Objective sense      : Maximize
Variables            :   53805  [Nneg: 1,  Box: 22000,  Free: 4464,
                                 Binary: 27340]
Objective nonzeros   :    9027
Linear constraints   :  123205  [Less: 41346,  Greater: 59096,  Equal: 22763]
  Nonzeros           :  291751
  RHS nonzeros       :   67487

Variables            : Min LB: -5000.000        Max UB: 1000000.       
Objective nonzeros   : Min   : 0.7833333        Max   : 2500.000       
Linear constraints   :
  Nonzeros           : Min   : 0.7833333        Max   : 1000000.       
  RHS nonzeros       : Min   : 0.7833333        Max   : 1000000.       
CPLEX> CPXPARAM_Parallel                                -1
CPXPARAM_Simplex_Tolerances_Feasibility          0.01
CPXPARAM_DetTimeLimit                            75000
CPXPARAM_MIP_Tolerances_MIPGap                   0.01
CPXPARAM_MIP_Tolerances_Integrality              1.0000000000000001e-09
Tried aggregator 3 times.
MIP Presolve eliminated 88799 rows and 19123 columns.
MIP Presolve added 3342 rows and 0 columns.
MIP Presolve modified 24740 coefficients.
Aggregator did 12923 substitutions.
Reduced MIP has 24825 rows, 21203 columns, and 70797 nonzeros.
Reduced MIP has 8364 binaries, 0 generals, 0 SOSs, and 0 indicators.
Presolve time = 0.30 sec. (175.90 ticks)
Probing fixed 406 vars, tightened 2866 bounds.
Probing time = 1.22 sec. (895.33 ticks)
Tried aggregator 2 times.
MIP Presolve eliminated 922 rows and 812 columns.
MIP Presolve modified 2211 coefficients.
Aggregator did 38 substitutions.
Reduced MIP has 23865 rows, 20353 columns, and 68027 nonzeros.
Reduced MIP has 7958 binaries, 0 generals, 0 SOSs, and 0 indicators.
Presolve time = 0.09 sec. (67.18 ticks)
Probing time = 0.05 sec. (16.42 ticks)
Clique table members: 6267.
MIP emphasis: balance optimality and feasibility.
MIP search method: dynamic search.
Parallel mode: opportunistic, using up to 32 threads.
Root relaxation solution time = 0.47 sec. (630.48 ticks)

        Nodes                                         Cuts/
   Node  Left     Objective  IInf  Best Integer    Best Bound    ItCnt     Gap

      0     0      306.0934  1017                    306.0934     4515         
      0     0      306.0934   737                   Cuts: 961     4950         
      0     0      305.9519   564                   Cuts: 778     5244         
      0     0      305.8104   450                   Cuts: 507     5394         
      0     0      305.8104   413                   Cuts: 149     5445         
      0     0      305.8104   401                   Cuts: 108     5471         
      0     0      305.8104   396                    Cuts: 87     5484         
      0     6    infeasible                           Cuts: 3     5722         
Elapsed time = 12.52 sec. (6790.84 ticks, tree = 0.02 MB, solutions = 0)
    464    53    -1102.9779    13                    297.6114     7086         
*   552    91      integral     0   -13231.2747      297.6114     7351  102.25%
   1012   507        cutoff         -13231.2747      297.6114     8540  102.25%
   1273   875      278.2192     1   -13231.2747      297.6114    10052  102.25%
   1515   968      227.4327     0      227.4327      297.6114    10371   30.86%
   1895   523      286.7682     5      227.4327      297.6114    10609   30.86%
   2257   495      279.9292     1      227.4327      297.6114    11120   30.86%
   2503   711      279.9292     3      227.4327      297.6114    12162   30.86%
   2750   796      284.8240     2      227.4327      297.6114    12547   30.86%
   3005   921        cutoff            227.4327      297.6114    13603   30.86%
   4819   923      286.1775     9      264.8005      297.6114    17538   12.39%
Elapsed time = 27.14 sec. (9898.12 ticks, tree = 4.39 MB, solutions = 8)
*  4932   991      integral     0      286.6909      297.6114    18090    3.81%
   5865   449      293.6287     3      286.6909      297.6114    21181    3.81%
   6585   501        cutoff            286.6909      297.6114    21484    3.81%
   7278   661      289.6400     1      286.6909      297.2040    22387    3.67%
   7958   729      288.5012     1      286.6909      297.2040    22794    3.67%
   8101   715      292.8613     1      286.6909      297.2040    25224    3.67%
*  8105     0      integral     0      286.6909                  31029     --- 

Clique cuts applied:  18
Cover cuts applied:  1
Implied bound cuts applied:  22
Flow cuts applied:  9
Mixed integer rounding cuts applied:  21
Gomory fractional cuts applied:  26

Root node processing (before b&c):
  Real time             =   11.11 sec. (6776.47 ticks)
Parallel b&c, 32 threads:
  Real time             =   31.06 sec. (9335.85 ticks)
  Sync time (average)   =    0.67 sec.
  Wait time (average)   =    0.00 sec.
                          ------------
Total (root+branch&cut) =   42.17 sec. (16112.31 ticks)

Solution pool: 8 solutions saved.

MIP - Integer optimal solution:  Objective =  2.8669086315e+02
Solution time =   42.19 sec.  Iterations = 31029  Nodes = 8105
Deterministic time = 16112.47 ticks  (381.92 ticks/sec)

CPLEX> Incumbent solution written to file 'C:\Users\llavin\Desktop\test919\logs\tmpmw37j_3h.cplex.sol'.
CPLEX> NOTE: no warmstart specified for MIP iteration, default behavior is true
NOTE: resolving with all competitive generators using storage-only solution to warmstart
Solving...

Welcome to IBM(R) ILOG(R) CPLEX(R) Interactive Optimizer 12.9.0.0
  with Simplex, Mixed Integer & Barrier Optimizers
5725-A06 5725-A29 5724-Y48 5724-Y49 5724-Y54 5724-Y55 5655-Y21
Copyright IBM Corp. 1988, 2019.  All Rights Reserved.

Type 'help' for a list of available commands.
Type 'help' followed by a command name for more
information on commands.

CPLEX> Logfile 'cplex.log' closed.
Logfile 'C:\Users\llavin\Desktop\test919\logs\tmplvlfvewg.cplex.log' open.
CPLEX> New value for parallel optimization mode: -1
CPLEX> New value for mixed integer optimality gap tolerance: 0.01
CPLEX> New value for integrality tolerance: 1e-09
CPLEX> New value for feasibility tolerance: 0.01
CPLEX> New value for deterministic time limit in ticks: 75000
CPLEX> Problem 'C:\Users\llavin\Desktop\test919\logs\tmpp3dc0276.pyomo.lp' read.
Read time = 0.23 sec. (14.81 ticks)
CPLEX> MIP start file 'C:\Users\llavin\Desktop\test919\logs\tmpqfb3pszc.cplex.mst' read.
CPLEX> Problem name         : C:\Users\llavin\Desktop\test919\logs\tmpp3dc0276.pyomo.lp
Objective sense      : Maximize
Variables            :   54525  [Nneg: 1,  Box: 22720,  Free: 4464,
                                 Binary: 27340]
Objective nonzeros   :    9723
Linear constraints   :  123205  [Less: 41346,  Greater: 59096,  Equal: 22763]
  Nonzeros           :  291751
  RHS nonzeros       :   67487

Variables            : Min LB: -5000.000        Max UB: 1000000.       
Objective nonzeros   : Min   : 0.7833333        Max   : 2500.000       
Linear constraints   :
  Nonzeros           : Min   : 0.7833333        Max   : 1000000.       
  RHS nonzeros       : Min   : 0.7833333        Max   : 1000000.       
CPLEX> CPXPARAM_Parallel                                -1
CPXPARAM_Simplex_Tolerances_Feasibility          0.01
CPXPARAM_DetTimeLimit                            75000
CPXPARAM_MIP_Tolerances_MIPGap                   0.01
CPXPARAM_MIP_Tolerances_Integrality              1.0000000000000001e-09
Warning:  No solution found from 1 MIP starts.
Retaining values of one MIP start for possible repair.
Tried aggregator 3 times.
MIP Presolve eliminated 88799 rows and 19843 columns.
MIP Presolve added 3342 rows and 0 columns.
MIP Presolve modified 24740 coefficients.
Aggregator did 12923 substitutions.
Reduced MIP has 24825 rows, 21203 columns, and 70797 nonzeros.
Reduced MIP has 8364 binaries, 0 generals, 0 SOSs, and 0 indicators.
Presolve time = 0.28 sec. (176.27 ticks)
Probing fixed 406 vars, tightened 2866 bounds.
Probing time = 1.31 sec. (895.33 ticks)
Tried aggregator 2 times.
MIP Presolve eliminated 922 rows and 812 columns.
MIP Presolve modified 2211 coefficients.
Aggregator did 38 substitutions.
Reduced MIP has 23865 rows, 20353 columns, and 68027 nonzeros.
Reduced MIP has 7958 binaries, 0 generals, 0 SOSs, and 0 indicators.
Presolve time = 0.11 sec. (67.19 ticks)
Probing time = 0.05 sec. (16.42 ticks)
Clique table members: 6267.
MIP emphasis: balance optimality and feasibility.
MIP search method: dynamic search.
Parallel mode: opportunistic, using up to 32 threads.
Root relaxation solution time = 0.48 sec. (628.56 ticks)

        Nodes                                         Cuts/
   Node  Left     Objective  IInf  Best Integer    Best Bound    ItCnt     Gap

      0     0     9519.4389  1036                   9519.4389     4514         
      0     0     9519.4389   716                  Cuts: 1008     4995         
      0     0     9519.1561   527                   Cuts: 775     5284         
      0     0     9518.9687   419                   Cuts: 413     5419         
      0     0     9518.9687   382               Flowcuts: 111     5461         
      0     0     9518.9687   369                Flowcuts: 99     5486         
      0     0     9518.9687   369                Flowcuts: 62     5491         
Repair heuristic found nothing.
      0    17    infeasible                         9504.3360     6302         
Elapsed time = 12.47 sec. (6991.69 ticks, tree = 0.02 MB, solutions = 0)
    636   216     7905.5284     7                   9504.3360     8060         
*   898+  796                          981.0627     9504.2798           868.77%
*  1460   860      integral     0     9462.4143     9504.2798    10313    0.44%
   1487   930     9501.5629    14     9462.4143     9504.2798    10426    0.44%

Clique cuts applied:  41
Cover cuts applied:  1
Implied bound cuts applied:  79
Flow cuts applied:  422
Mixed integer rounding cuts applied:  33
Gomory fractional cuts applied:  46

Root node processing (before b&c):
  Real time             =   11.61 sec. (6983.79 ticks)
Parallel b&c, 32 threads:
  Real time             =    4.00 sec. (750.20 ticks)
  Sync time (average)   =    0.39 sec.
  Wait time (average)   =    0.00 sec.
                          ------------
Total (root+branch&cut) =   15.61 sec. (7733.99 ticks)

Solution pool: 3 solutions saved.

MIP - Integer optimal, tolerance (0.01/1e-06):  Objective =  9.4624142504e+03
Current MIP best bound =  9.5042797709e+03 (gap = 41.8655, 0.44%)
Solution time =   15.64 sec.  Iterations = 11534  Nodes = 1640 (661)
Deterministic time = 7734.15 ticks  (494.51 ticks/sec)

CPLEX> Incumbent solution written to file 'C:\Users\llavin\Desktop\test919\logs\tmpz6postaw.cplex.sol'.
CPLEX> Exporting results... 
